NAME: pr1002.tour
COMMENT: Best tour for pr1002.tsp (269950.0)
TYPE: TOUR
DIMENSION: 1002
TOUR_SECTION
193
192
190
191
218
217
211
212
216
213
214
215
219
220
222
223
224
225
226
227
271
269
268
267
266
262
261
247
250
249
248
260
270
272
273
274
275
276
277
278
279
280
281
282
302
303
304
301
283
284
285
299
300
305
991
297
298
286
287
288
404
403
402
408
409
407
406
417
416
410
411
412
413
414
415
418
405
421
422
420
419
427
426
425
424
423
464
463
462
461
428
429
430
431
997
435
436
437
438
439
634
633
992
625
626
628
627
611
629
630
631
632
441
440
442
443
444
446
445
447
434
433
432
452
453
455
456
457
458
459
460
465
466
467
468
469
470
471
472
473
474
475
476
477
480
479
478
998
481
482
483
493
494
497
496
495
492
484
491
490
485
486
487
513
512
511
488
489
500
499
498
501
502
503
504
505
506
507
508
509
510
999
530
524
523
515
516
517
567
568
566
565
564
546
519
518
520
521
522
525
529
526
527
528
532
531
533
534
535
536
537
538
539
540
541
543
542
548
544
545
547
549
562
563
561
550
551
552
553
554
555
556
557
558
560
559
592
591
574
575
576
577
578
573
572
571
570
569
514
579
580
581
582
583
584
454
451
450
448
449
585
586
587
598
588
589
590
594
593
595
596
597
599
600
601
602
603
604
605
606
607
608
609
610
612
613
614
615
616
732
792
791
790
789
756
757
758
785
784
783
781
780
779
778
776
777
913
914
915
926
916
917
918
904
905
906
903
901
902
921
885
884
886
888
887
920
919
900
899
907
908
1001
909
910
911
912
782
786
787
788
793
794
795
796
797
798
799
800
801
802
803
804
805
806
807
808
809
810
811
821
822
825
824
823
820
812
813
819
818
814
815
841
840
839
816
817
828
827
826
829
830
831
832
833
834
835
836
837
838
1002
859
860
862
861
863
864
865
866
867
873
868
869
872
871
870
876
875
874
847
846
848
849
845
844
850
853
855
856
854
857
858
852
851
843
842
897
898
896
895
894
893
892
891
889
890
877
878
879
880
881
882
883
923
922
924
925
927
928
929
930
931
932
933
934
935
936
937
938
939
957
958
959
960
769
767
766
768
770
771
772
774
773
775
762
761
760
759
1000
763
764
765
741
742
743
745
746
748
747
755
754
753
752
751
750
749
733
735
734
744
738
739
740
703
702
704
705
697
698
699
700
701
968
967
966
965
964
963
962
961
993
953
954
956
955
940
941
942
943
944
945
946
947
948
952
951
949
950
977
978
979
976
975
974
973
969
972
981
980
982
971
970
987
986
985
983
984
990
989
988
684
683
685
682
686
687
681
680
679
678
677
676
675
674
673
672
671
669
670
664
663
665
666
667
668
719
720
718
688
689
690
691
692
693
694
695
696
706
707
709
713
714
715
716
717
721
722
723
724
725
726
727
729
728
712
711
710
708
737
736
731
730
620
619
618
617
624
623
621
622
649
650
648
651
652
654
653
647
646
645
640
639
638
637
636
635
374
375
376
377
379
380
381
385
382
383
384
395
394
393
387
386
388
389
392
391
390
360
361
362
363
364
365
366
367
368
378
369
370
371
372
373
641
644
643
642
659
658
657
655
656
662
661
660
356
355
357
358
359
354
348
347
346
349
350
353
352
351
345
344
343
342
341
340
339
338
337
336
335
398
397
396
400
401
399
292
291
290
289
296
295
293
294
321
322
323
320
319
318
317
313
44
45
312
311
310
309
308
306
307
46
47
48
43
42
49
41
50
40
51
53
52
54
55
57
58
59
60
39
38
37
36
314
315
316
325
324
326
331
330
329
327
328
334
333
332
28
27
29
26
20
19
21
18
15
14
13
16
17
22
23
24
25
31
30
35
34
33
32
62
63
64
61
65
66
67
56
72
73
71
70
69
68
12
11
10
9
8
7
6
4
3
5
2
1
76
75
74
80
81
79
78
77
93
94
92
91
90
89
88
82
83
84
85
86
87
99
98
97
96
95
136
135
134
133
100
101
102
103
104
105
106
994
107
108
109
110
111
113
112
114
115
116
118
119
117
120
121
122
123
124
125
127
128
129
130
131
132
137
138
139
140
141
142
152
151
150
149
144
143
145
146
148
147
126
255
256
257
258
259
254
253
252
251
995
153
154
155
165
166
169
168
167
163
164
156
157
162
158
185
184
159
160
161
172
171
170
173
174
175
176
177
178
179
180
181
183
182
996
203
204
205
210
209
208
207
206
200
199
198
201
202
196
195
187
186
241
242
243
244
245
246
263
264
265
231
229
228
230
232
233
235
234
221
236
237
238
240
239
189
188
194
197
-1
EOF